% File represents an instance of a Composite Structure problem to be solved by a CP framework
% Created on 2025-03-26 10:41:56.982
T = 50;
n = 36;
m = 60;
edges = [(1, 2),
(7, 8),
(13, 14),
(19, 20),
(25, 26),
(31, 32),
(2, 3),
(8, 9),
(14, 15),
(20, 21),
(26, 27),
(32, 33),
(3, 4),
(9, 10),
(15, 16),
(21, 22),
(27, 28),
(33, 34),
(4, 5),
(11, 10),
(17, 16),
(23, 22),
(29, 28),
(35, 34),
(5, 6),
(11, 12),
(17, 18),
(24, 23),
(29, 30),
(35, 36),
(1, 7),
(7, 13),
(13, 19),
(19, 25),
(31, 25),
(2, 8),
(8, 14),
(14, 20),
(20, 26),
(32, 26),
(3, 9),
(9, 15),
(15, 21),
(21, 27),
(33, 27),
(4, 10),
(10, 16),
(16, 22),
(22, 28),
(34, 28),
(5, 11),
(11, 17),
(17, 23),
(23, 29),
(29, 35),
(12, 6),
(12, 18),
(24, 18),
(24, 30),
(30, 36)];
counts = [|4, 20, 4, 22,
|4, 18, 4, 18,
|4, 12, 4, 18,
|4, 10, 4, 14,
|4, 8, 4, 14,
|4, 4, 4, 12,
|4, 18, 4, 18,
|4, 18, 4, 12,
|4, 12, 4, 12,
|4, 6, 4, 12,
|4, 8, 4, 12,
|4, 6, 4, 12,
|4, 12, 4, 18,
|4, 12, 4, 12,
|4, 8, 4, 10,
|4, 4, 4, 8,
|4, 8, 4, 10,
|4, 4, 4, 10,
|4, 8, 4, 16,
|4, 6, 4, 12,
|4, 4, 4, 10,
|4, 4, 4, 6,
|4, 6, 4, 10,
|4, 6, 4, 12,
|4, 6, 4, 12,
|4, 2, 4, 10,
|4, 2, 4, 8,
|4, 2, 4, 6,
|4, 4, 4, 10,
|4, 4, 4, 8,
|4, 8, 4, 16,
|4, 6, 4, 12,
|4, 4, 4, 12,
|4, 2, 4, 8,
|4, 2, 4, 10,
|4, 2, 4, 6|];
